(set-info :smt-lib-version 2.6)
(set-logic QF_FPBV)
(set-option :produce-models true)
(set-info :source |Random FP created by PyMPF|)
(set-info :license |https://www.gnu.org/licenses/gpl-3.0.html|)
(set-info :category random)
(set-info :status sat)
;; fp.from.sbv(BitVec 32)
(declare-const x (_ BitVec 32))
(assert (= x #b01100101010010001111101001100010))
;; x should be 1699281506

(declare-const r Float64)
(assert (= r ((_ to_fp 11 53) RNA x)))
(assert (fp.eq r (fp #b0 #b10000011101 #b1001010100100011111010011000100000000000000000000000)))
(check-sat)
(exit)
